\ Model qp
\ LP format - for model browsing. Use MPS format to capture full model detail.
Maximize
  IS0 + IS1 + IS2 + IS3 + IS4 + IS5 + IS6
Subject To
 Predicate-C-0.1: IS0 <= 0
 Predicate-C-1.1: IS1 <= -1.777777777777778
 Predicate-C-2.1: IS2 <= 0
 Predicate-C-3.1: IS3 <= 0
 Predicate-C-4.1: IS4 <= 0
 Predicate-C-5.1: IS5 <= 0
 Predicate-C-6.1: IS6 <= 0
Bounds
 IS0 free
 IS1 free
 IS2 free
 IS3 free
 IS4 free
 IS5 free
 IS6 free
End
